sets/C/cp-n14-kk.vrp
NAME : (null)
COMMENT : (null)
TYPE : CVRP
DIMENSION : 14
EDGE_WEIGHT_TYPE : EUC_2D
CAPACITY : 70
NODE_COORD_SECTION
 1   3   3
 2  10   1
 3   4   1
 4  10   5
 5  13   2
 6  11   3
 7   8   1
 8  11   4
 9   4   8
10   6   8
11  10   0
12  11   0
13   9   9
14   9   2
DEMAND_SECTION
 1   0
 2  23
 3  16
 4  21
 5  10
 6   7
 7  15
 8  19
 9   8
10  11
11   6
12  24
13  15
14  13
DEPOT_SECTION
 1
-1
EOF