sets/C/cp-n14-kk.opt
Route #1: 13 5 4 7 3
Route #2: 8 9 12 2
Route #3: 6 10 11 1
cost 58
